; benchmark
(set-info :status unknown)
(declare-fun |bArgs[1]| () Bool)
(declare-fun |bArgs[2]| () Bool)
(declare-fun |bArgs[3]| () Bool)
(declare-fun |iArgs[5]| () (_ BitVec 32))
(declare-fun |bArgs[7]| () Bool)
(declare-fun |bArgs[8]| () Bool)
(declare-fun |iArgs[9]| () (_ BitVec 32))
(declare-fun |iArgs[11]| () (_ BitVec 32))
(declare-fun |bArgs[13]| () Bool)
(declare-fun |bArgs[14]| () Bool)
(declare-fun |bArgs[5]| () Bool)
(declare-fun |iArgs[7]| () (_ BitVec 32))
(declare-fun |bArgs[9]| () Bool)
(declare-fun |bArgs[11]| () Bool)
(declare-fun |iArgs[13]| () (_ BitVec 32))
(declare-fun |iArgs[3]| () (_ BitVec 32))
(declare-fun |bArgs[4]| () Bool)
(declare-fun |iArgs[6]| () (_ BitVec 32))
(declare-fun |bArgs[10]| () Bool)
(declare-fun |bArgs[6]| () Bool)
(declare-fun |bArgs[12]| () Bool)
(declare-fun |iArgs[15]| () (_ BitVec 32))
(declare-fun |bArgs[16]| () Bool)
(declare-fun |bArgs[15]| () Bool)
(declare-fun |iArgs[17]| () (_ BitVec 32))
(declare-fun |iArgs[19]| () (_ BitVec 32))
(assert
 (let (($x47 (and (distinct |bArgs[1]| true) true)))
 (let (($x59 (= |bArgs[2]| false)))
 (let (($x58 (= |bArgs[3]| true)))
 (let (($x57 (bvsge |iArgs[5]| #x00000000)))
 (let (($x64 (bvslt |iArgs[5]| #x00000005)))
 (let (($x69 (= |bArgs[7]| true)))
 (let (($x102 (= |bArgs[8]| false)))
 (let (($x84 (bvsge |iArgs[9]| #x00000000)))
 (let (($x109 (bvsge |iArgs[9]| #x00000005)))
 (let (($x100 (bvsge |iArgs[11]| #x00000000)))
 (let (($x116 (bvslt |iArgs[11]| #x00000005)))
 (let (($x121 (= |bArgs[13]| true)))
 (let (($x104 (and (distinct |bArgs[14]| false) true)))
 (let (($x145 (and $x104 $x121 $x116 $x100 $x109 $x84 $x102 $x69 $x64 $x57 $x58 $x59 $x47)))
 (let (($x67 (and (distinct |bArgs[3]| true) true)))
 (let (($x66 (= |bArgs[5]| true)))
 (let (($x55 (bvsge |iArgs[7]| #x00000000)))
 (let (($x61 (bvslt |iArgs[7]| #x00000005)))
 (let (($x106 (and (distinct |bArgs[9]| true) true)))
 (let (($x45 (and (distinct |bArgs[11]| true) true)))
 (let (($x144 (and $x104 $x121 $x45 $x106 $x102 $x61 $x55 $x66 $x67 $x59 $x47)))
 (let (($x83 (bvslt |iArgs[9]| #x00000005)))
 (let (($x126 (= |bArgs[11]| true)))
 (let (($x98 (bvsge |iArgs[13]| #x00000000)))
 (let (($x133 (bvsge |iArgs[13]| #x00000005)))
 (let (($x143 (and $x104 $x133 $x98 $x126 $x83 $x84 $x102 $x69 $x64 $x57 $x58 $x59 $x47)))
 (let (($x49 (= |bArgs[1]| true)))
 (let (($x89 (bvsge |iArgs[3]| #x00000000)))
 (let (($x88 (bvsge |iArgs[3]| #x00000005)))
 (let (($x87 (= |bArgs[4]| true)))
 (let (($x86 (bvsge |iArgs[6]| #x00000000)))
 (let (($x85 (bvslt |iArgs[6]| #x00000005)))
 (let (($x63 (and (distinct |bArgs[7]| true) true)))
 (let (($x136 (= |iArgs[5]| #x00000000)))
 (let (($x82 (and (distinct |iArgs[6]| #x00000000) true)))
 (let (($x141 (= |iArgs[6]| #x00000001)))
 (let (($x75 (and (distinct |bArgs[10]| false) true)))
 (let (($x142 (and $x75 $x141 $x82 $x106 $x136 $x136 $x63 $x85 $x86 $x64 $x57 $x87 $x88 $x89 $x59 $x49)))
 (let (($x53 (bvsge |iArgs[7]| #x00000005)))
 (let (($x140 (and $x104 $x121 $x116 $x100 $x109 $x84 $x102 $x53 $x55 $x66 $x67 $x59 $x47)))
 (let (($x99 (bvsge |iArgs[11]| #x00000005)))
 (let (($x97 (bvslt |iArgs[13]| #x00000005)))
 (let (($x139 (and $x104 $x97 $x98 $x99 $x100 (= |bArgs[9]| true) $x102 $x63 $x64 $x57 $x58 $x59 $x47)))
 (let (($x138 (and (and (distinct |bArgs[12]| false) true) $x45 $x106 $x136 $x136 $x63 (and (distinct |bArgs[6]| true) true) $x64 $x57 (and (distinct |bArgs[4]| true) true) $x88 $x89 $x59 $x49)))
 (let (($x134 (and $x104 $x133 $x98 $x126 $x106 $x102 $x63 $x64 $x57 $x58 $x59 $x47)))
 (let (($x110 (bvslt |iArgs[3]| #x00000005)))
 (let (($x72 (and (distinct |bArgs[5]| true) true)))
 (let (($x129 (= |iArgs[3]| #x00000003)))
 (let (($x128 (= |iArgs[6]| #x00000000)))
 (let (($x132 (and $x75 $x128 $x128 $x83 $x84 $x69 $x85 $x86 $x129 (and (distinct |iArgs[3]| #x00000001) true) (and (distinct |iArgs[3]| #x00000000) true) $x72 $x87 $x110 $x89 $x59 $x49)))
 (let (($x127 (and $x104 $x97 $x98 $x126 $x106 $x102 $x63 $x64 $x57 $x58 $x59 $x47)))
 (let (($x123 (= |iArgs[3]| #x00000000)))
 (let (($x119 (bvsge |iArgs[15]| #x00000005)))
 (let (($x125 (and (and (distinct |bArgs[16]| false) true) $x119 (bvsge |iArgs[15]| #x00000000) $x121 $x45 (= |bArgs[10]| false) $x83 $x84 $x69 $x123 $x123 $x72 (and (distinct |bArgs[4]| true) true) $x110 $x89 $x59 $x49)))
 (let (($x56 (bvsge |iArgs[5]| #x00000005)))
 (let (($x112 (= |iArgs[11]| #x00000004)))
 (let (($x117 (and $x104 $x112 (and (distinct |iArgs[11]| #x00000003) true) (and (distinct |iArgs[11]| #x00000001) true) (and (distinct |iArgs[11]| #x00000000) true) (and (distinct |bArgs[13]| true) true) $x116 $x100 $x109 $x84 $x102 $x53 $x55 $x56 $x57 $x58 $x59 $x47)))
 (let (($x108 (= |iArgs[6]| #x00000003)))
 (let (($x111 (and $x75 $x108 (and (distinct |iArgs[6]| #x00000001) true) $x82 $x109 $x84 $x53 $x55 $x85 $x86 $x66 $x87 $x110 $x89 $x59 $x49)))
 (let (($x107 (and $x104 (and (distinct |bArgs[13]| true) true) $x45 $x106 $x102 $x61 $x55 $x66 $x67 $x59 $x47)))
 (let (($x93 (bvsge |iArgs[17]| #x00000005)))
 (let (($x91 (bvsge |iArgs[19]| #x00000005)))
 (let (($x103 (and $x91 (bvsge |iArgs[19]| #x00000000) $x93 (bvsge |iArgs[17]| #x00000000) (= |bArgs[15]| true) (= |bArgs[14]| false) $x97 $x98 $x99 $x100 (= |bArgs[9]| true) $x102 $x61 $x55 $x56 $x57 $x58 $x59 $x47)))
 (let (($x77 (= |iArgs[6]| #x00000004)))
 (let (($x90 (and $x75 $x77 (and (distinct |iArgs[6]| #x00000003) true) (and (distinct |iArgs[6]| #x00000001) true) $x82 $x83 $x84 $x53 $x55 $x85 $x86 $x56 $x57 $x87 $x88 $x89 $x59 $x49)))
 (let (($x51 (and (distinct |bArgs[8]| false) true)))
 (let (($x74 (and $x51 $x63 $x72 $x67 $x59 $x47)))
 (let (($x73 (and $x51 $x69 $x72 $x67 $x59 $x47)))
 (let (($x71 (and $x51 $x53 $x55 $x66 $x67 $x59 $x47)))
 (let (($x70 (and $x51 $x69 $x64 $x57 $x58 $x59 $x47)))
 (let (($x68 (and $x51 $x61 $x55 $x66 $x67 $x59 $x47)))
 (let (($x65 (and $x51 $x63 $x64 $x57 $x58 $x59 $x47)))
 (let (($x62 (and $x51 $x61 $x55 $x56 $x57 $x58 $x59 $x47)))
 (let (($x60 (and $x51 $x53 $x55 $x56 $x57 $x58 $x59 $x47)))
 (let (($x50 (and (and (distinct |bArgs[2]| false) true) $x49)))
 (let (($x48 (and (and (distinct |bArgs[2]| false) true) $x47)))
 (let (($x154 (or $x48 $x50 $x60 $x62 $x65 $x68 $x70 $x71 $x73 $x74 $x90 $x103 $x107 $x111 $x117 $x125 $x127 $x132 $x134 $x138 $x139 $x140 $x142 $x143 $x144 $x145)))
 (not $x154)))))))))))))))))))))))))))))))))))))))))))))))))))))))))))))))))))))))))))))))
(check-sat)
